30
1 0 9
2 0 3
2 1 2
3 0 1
4 0 8
4 1 6
4 3 7
5 0 4
6 0 3
6 3 9
6 5 6
7 4 6
7 5 8
8 0 5
8 1 5
8 3 3
8 5 7
8 7 1
9 3 3
9 4 1
9 5 5
9 8 1
10 0 8
10 2 5
10 4 3
10 6 10
11 1 6
11 3 6
11 8 1
11 10 1
12 1 8
12 2 8
12 3 10
12 6 8
12 8 9
12 11 7
13 0 6
13 1 9
13 2 1
13 3 9
13 4 2
13 5 10
13 6 3
13 7 10
13 9 2
13 12 8
14 2 7
14 4 8
14 9 10
15 0 4
15 1 9
15 3 6
15 6 1
15 9 9
15 10 6
15 12 5
15 13 8
16 1 4
16 3 6
16 4 10
16 5 2
16 8 4
16 9 4
16 11 7
16 12 4
16 15 1
17 1 9
17 2 3
17 3 4
17 4 5
17 5 1
17 6 8
17 7 4
17 9 3
17 10 2
17 11 9
17 12 6
17 13 8
17 16 4
18 0 5
18 2 10
18 6 5
18 8 5
18 10 3
18 11 10
18 16 10
19 1 7
19 2 6
19 7 4
19 8 9
19 9 8
19 11 6
19 12 9
19 13 4
19 14 7
19 16 5
19 17 8
19 18 10
20 0 3
20 2 2
20 5 1
20 9 6
20 12 3
20 13 8
20 14 4
20 15 5
20 16 2
20 17 6
21 0 4
21 4 3
21 5 3
21 6 2
21 10 9
21 11 9
21 12 9
21 13 4
21 15 3
21 17 1
21 20 3
22 2 4
22 3 1
22 4 3
22 6 9
22 11 1
22 12 3
22 13 5
22 15 5
22 16 3
22 19 7
22 20 4
23 0 9
23 1 1
23 2 7
23 4 6
23 5 6
23 6 5
23 7 7
23 9 9
23 10 9
23 11 7
23 12 4
23 14 5
23 16 3
23 17 5
23 20 10
23 22 10
24 3 9
24 5 8
24 13 4
24 14 8
24 16 5
24 19 6
24 22 6
24 23 2
25 0 4
25 2 6
25 5 8
25 6 7
25 7 2
25 9 6
25 10 7
25 12 4
25 13 5
25 15 2
25 16 1
25 20 1
25 21 7
25 22 4
25 23 2
26 0 8
26 5 7
26 6 4
26 7 1
26 10 10
26 11 1
26 12 5
26 15 7
26 24 6
26 25 10
27 0 3
27 2 1
27 6 1
27 8 10
27 10 8
27 11 2
27 14 5
27 16 6
27 17 3
27 19 5
27 20 10
27 26 4
28 0 2
28 2 6
28 5 1
28 6 7
28 8 2
28 10 3
28 11 3
28 12 5
28 13 2
28 16 1
28 19 8
28 21 6
28 22 6
28 23 8
28 27 10
29 0 10
29 5 10
29 11 2
29 12 6
29 15 4
29 18 9
29 21 10
29 22 8
29 23 8
29 25 2
29 26 6
29 27 2
